50
100
100
99
98
98
97
96
95
91
91
90
88
88
87
86
81
80
79
76
75
67
66
65
65
64
60
59
59
58
57
57
55
53
53
50
49
49
49
46
44
43
42
38
37
37
36
35
34
34
31
30
